17	4	3
52	40	30	24	31	15	34	
0	0	0	0	0	8	7	6	1	3	5	3	2	3	4
2	0	7	9	9	7	7	6	9	9	4	3	6	8	9
4	6	0	0	1	6	5	2	1	4	2	2	7	17
2	2	2	3	0	5	5	2	10	7	8	2	5	11
10	9	6	8	2	5	1	2	9	2	6	1	13
125	3	2	0	0	4	9	3	9	10	5	3	10	14	15
125	0	0	10	2	3	7	2	9	6	10	3	8	12	17
175	10	3	8	5	3	1	4	5	2	8	2	16	17
200	9	0	1	0	6	6	2	7	6	8	1	17
150	10	8	0	4	5	1	9	6	9	10	2	17	17
50	4	7	3	0	2	2	9	4	1	9	1	17
150	4	6	6	0	9	3	5	1	2	10	1	17
5	4	7	4	0	10	4	1	4	8	3	1	17
3	4	9	0	3	2	4	8	3	1	4	1	17
5	6	5	3	1	1	5	4	10	10	2	1	17
1	2	9	1	6	9	1	4	8	5	4	1	17
0	0	0	0	0	6	4	7	1	4	9	0
